\ Model matlab
\ LP format - for model browsing. Use MPS format to capture full model detail.
Maximize
  C0 + C1 + 2 C2
Subject To
 R0: C0 + 2 C1 + 3 C2 <= 4
 R1: C0 + C1 >= 1
Bounds
Binaries
 C0 C1 C2
End
